(set-logic HORN)

(declare-datatypes ((node 0)) (((node  (h Int) (n Int)))))
(declare-datatypes ((HeapObject 0)) (((O_Int  (getInt Int)) (O_UInt  (getUInt Int)) (O_Addr  (getAddr Int)) (O_node  (getnode node)) (defObj ))))
(declare-datatypes ((Heap 0)) (((HeapCtor  (HeapSize Int) (HeapContents (Array Int HeapObject))))))

(declare-fun |inv_main40| ( Heap Int Int Int Int ) Bool)
(declare-fun |inv_main17| ( Heap Int Int Int Int ) Bool)
(declare-fun |inv_main12| ( Heap Int Int Int Int ) Bool)
(declare-fun |inv_main23| ( Heap Int Int Int Int ) Bool)
(declare-fun |inv_main3| ( Heap Int ) Bool)
(declare-fun |inv_main18| ( Heap Int Int Int Int ) Bool)
(declare-fun |inv_main13| ( Heap Int Int Int Int ) Bool)
(declare-fun |inv_main44| ( Heap Int Int Int Int ) Bool)
(declare-fun |inv_main57| ( Heap Int Int Int Int ) Bool)
(declare-fun |CHC_COMP_FALSE| ( ) Bool)
(declare-fun |inv_main37| ( Heap Int Int Int Int ) Bool)
(declare-fun |inv_main33| ( Heap Int Int Int Int ) Bool)
(declare-fun |inv_main53| ( Heap Int Int Int Int Int ) Bool)
(declare-fun |inv_main49| ( Heap Int Int Int Int ) Bool)
(declare-fun |inv_main29| ( Heap Int Int Int Int ) Bool)

(assert
  (forall ( (A Heap) (v_1 Int) ) 
    (=>
      (and
        (and (= A (HeapCtor 0 ((as const (Array Int HeapObject)) defObj))) (= 1 v_1))
      )
      (inv_main3 A v_1)
    )
  )
)
(assert
  (forall ( (A Heap) (B Int) (C Int) (D Int) (E Int) (F Int) (G Int) (H Heap) (I Int) (J Int) (K Int) (L Int) (M Int) (N Heap) ) 
    (=>
      (and
        (inv_main53 N M L K J I)
        (let ((a!1 (ite (and (not (<= J 0)) (>= (HeapSize N) J))
                (select (HeapContents N) J)
                defObj))
      (a!2 (ite (and (not (<= C 0)) (>= (HeapSize H) C))
                (HeapCtor (HeapSize H) (store (HeapContents H) C defObj))
                H)))
  (and (= F L)
       (= E K)
       (= D J)
       (= C I)
       (= B (n (getnode a!1)))
       (= A a!2)
       (= H N)
       ((_ is O_node) a!1)
       (= G M)))
      )
      (inv_main49 A G F E B)
    )
  )
)
(assert
  (forall ( (A Int) (B Int) (C Int) (D Int) (E Heap) (F Int) (G Int) (H Int) (I Int) (J Int) (K Heap) (v_11 Int) ) 
    (=>
      (and
        (inv_main33 K J I H G)
        (let ((a!1 (ite (and (not (<= G 0)) (>= (HeapSize K) G))
                (select (HeapContents K) G)
                defObj)))
  (and (= F (h (getnode a!1)))
       (= D J)
       (= C I)
       (= B H)
       (= A G)
       (= E K)
       ((_ is O_node) a!1)
       (= F 3)
       (= v_11 C)))
      )
      (inv_main49 E D C B v_11)
    )
  )
)
(assert
  (forall ( (A Heap) (B Int) (C Int) (D Int) (E Int) (F Heap) ) 
    (=>
      (and
        (inv_main23 F E D C B)
        (let ((a!1 (ite (and (not (<= B 0)) (>= (HeapSize F) B))
                (select (HeapContents F) B)
                defObj)))
(let ((a!2 (O_node (node (h (getnode a!1)) C))))
(let ((a!3 (ite (and (not (<= B 0)) (>= (HeapSize F) B))
                (HeapCtor (HeapSize F) (store (HeapContents F) B a!2))
                F)))
  (and ((_ is O_node) a!1) (= A a!3)))))
      )
      (inv_main29 A E D C B)
    )
  )
)
(assert
  (forall ( (A Int) (B Int) (C Int) (D Int) (E Int) (F Heap) (G Int) (H Int) (I Int) (J Int) (K Heap) ) 
    (=>
      (and
        (inv_main29 K J I H G)
        (let ((a!1 (ite (and (not (<= G 0)) (>= (HeapSize K) G))
                (select (HeapContents K) G)
                defObj)))
  (and (= D I)
       (= C H)
       (= B G)
       (= A (n (getnode a!1)))
       (= F K)
       ((_ is O_node) a!1)
       (= E J)))
      )
      (inv_main12 F E D C A)
    )
  )
)
(assert
  (forall ( (A Int) (B Int) (C node) (D Heap) (E Int) (F Int) (G Heap) (v_7 Int) ) 
    (=>
      (and
        (inv_main3 G F)
        (let ((a!1 (HeapCtor (+ 1 (HeapSize G))
                     (store (HeapContents G) (+ 1 (HeapSize G)) (O_node C)))))
  (and (= E (+ 1 (HeapSize G))) (= B F) (= D a!1) (not (= E 0)) (= v_7 E)))
      )
      (inv_main12 D B E A v_7)
    )
  )
)
(assert
  (forall ( (A Int) (B Int) (C Int) (D Int) (E Int) (F Int) (G Int) (H Int) (I node) (J Heap) (K Heap) (L Int) (M Int) (N Int) (O Int) (P Int) (Q Heap) ) 
    (=>
      (and
        (inv_main17 Q P O N M)
        (let ((a!1 (ite (and (not (<= M 0)) (>= (HeapSize Q) M))
                (select (HeapContents Q) M)
                defObj))
      (a!4 (HeapCtor (+ 1 (HeapSize J))
                     (store (HeapContents J) (+ 1 (HeapSize J)) (O_node I)))))
(let ((a!2 (O_node (node 1 (n (getnode a!1))))))
(let ((a!3 (ite (and (not (<= M 0)) (>= (HeapSize Q) M))
                (HeapCtor (HeapSize Q) (store (HeapContents Q) M a!2))
                Q)))
  (and (= C B)
       (= B M)
       (= A P)
       (not (= L 0))
       (= L (+ 1 (HeapSize J)))
       (= H 0)
       (= G F)
       (= F O)
       (= E D)
       (= J a!3)
       (= K a!4)
       ((_ is O_node) a!1)
       (= D N)))))
      )
      (inv_main23 K H G L C)
    )
  )
)
(assert
  (forall ( (A Int) (B Int) (C Int) (D Int) (E Int) (F Int) (G Int) (H Int) (I node) (J Heap) (K Heap) (L Int) (M Int) (N Int) (O Int) (P Int) (Q Heap) ) 
    (=>
      (and
        (inv_main18 Q P O N M)
        (let ((a!1 (ite (and (not (<= M 0)) (>= (HeapSize Q) M))
                (select (HeapContents Q) M)
                defObj))
      (a!4 (HeapCtor (+ 1 (HeapSize J))
                     (store (HeapContents J) (+ 1 (HeapSize J)) (O_node I)))))
(let ((a!2 (O_node (node 2 (n (getnode a!1))))))
(let ((a!3 (ite (and (not (<= M 0)) (>= (HeapSize Q) M))
                (HeapCtor (HeapSize Q) (store (HeapContents Q) M a!2))
                Q)))
  (and (= C B)
       (= B M)
       (= A P)
       (not (= L 0))
       (= L (+ 1 (HeapSize J)))
       (= H 1)
       (= G F)
       (= F O)
       (= E D)
       (= J a!3)
       (= K a!4)
       ((_ is O_node) a!1)
       (= D N)))))
      )
      (inv_main23 K H G L C)
    )
  )
)
(assert
  (forall ( (A Int) (B Int) (C Int) (D Int) (E Heap) (F Int) (G Int) (H Int) (I Int) (J Int) (K Heap) (v_11 Int) ) 
    (=>
      (and
        (inv_main49 K J I H G)
        (let ((a!1 (ite (and (not (<= G 0)) (>= (HeapSize K) G))
                (select (HeapContents K) G)
                defObj)))
  (and (= F (h (getnode a!1)))
       (= D J)
       (= C I)
       (= B H)
       (= A G)
       (= E K)
       ((_ is O_node) a!1)
       (not (= F 3))
       (= v_11 A)))
      )
      (inv_main53 E D C B A v_11)
    )
  )
)
(assert
  (forall ( (A Int) (B Int) (C Int) (D Int) (E Int) (F Heap) ) 
    (=>
      (and
        (inv_main12 F E D C B)
        (and (not (= E 0)) (not (= A 0)))
      )
      (inv_main17 F E D C B)
    )
  )
)
(assert
  (forall ( (A Int) (B Int) (C Int) (D Int) (E Int) (F Heap) (G Int) (H Int) (I Int) (J Int) (K Heap) ) 
    (=>
      (and
        (inv_main37 K J I H G)
        (let ((a!1 (ite (and (not (<= G 0)) (>= (HeapSize K) G))
                (select (HeapContents K) G)
                defObj)))
  (and (= D I)
       (= C H)
       (= B G)
       (= A (n (getnode a!1)))
       (= F K)
       ((_ is O_node) a!1)
       (= E J)))
      )
      (inv_main33 F E D C A)
    )
  )
)
(assert
  (forall ( (A Int) (B Int) (C Int) (D Int) (E Heap) (F Int) (G Int) (H Int) (I Int) (J Heap) (v_10 Int) (v_11 Int) ) 
    (=>
      (and
        (inv_main13 J I H G F)
        (let ((a!1 (ite (and (not (<= F 0)) (>= (HeapSize J) F))
                (select (HeapContents J) F)
                defObj)))
(let ((a!2 (O_node (node 3 (n (getnode a!1))))))
(let ((a!3 (ite (and (not (<= F 0)) (>= (HeapSize J) F))
                (HeapCtor (HeapSize J) (store (HeapContents J) F a!2))
                J)))
  (and (= C H)
       (= B G)
       (= A F)
       (= E a!3)
       ((_ is O_node) a!1)
       (= D I)
       (= 1 v_10)
       (= v_11 C)))))
      )
      (inv_main33 E v_10 C B v_11)
    )
  )
)
(assert
  (forall ( (A Int) (B Int) (C Int) (D Int) (E Heap) (F Int) (G Int) (H Int) (I Int) (J Int) (K Heap) ) 
    (=>
      (and
        (inv_main40 K J I H G)
        (let ((a!1 (ite (and (not (<= G 0)) (>= (HeapSize K) G))
                (select (HeapContents K) G)
                defObj)))
  (and (= F (h (getnode a!1)))
       (= D J)
       (= C I)
       (= B H)
       (= A G)
       (= E K)
       ((_ is O_node) a!1)
       (= F 1)))
      )
      (inv_main37 E D C B A)
    )
  )
)
(assert
  (forall ( (A Int) (B Int) (C Int) (D Int) (E Heap) (F Int) (G Int) (H Int) (I Int) (J Int) (K Heap) ) 
    (=>
      (and
        (inv_main44 K J I H G)
        (let ((a!1 (ite (and (not (<= G 0)) (>= (HeapSize K) G))
                (select (HeapContents K) G)
                defObj)))
  (and (= F (h (getnode a!1)))
       (= D J)
       (= C I)
       (= B H)
       (= A G)
       (= E K)
       ((_ is O_node) a!1)
       (= F 2)))
      )
      (inv_main37 E D C B A)
    )
  )
)
(assert
  (forall ( (A Int) (B Int) (C Int) (D Heap) (E Int) (F Int) (G Int) (H Int) (I Int) (J Int) (K Heap) (v_11 Int) ) 
    (=>
      (and
        (inv_main33 K J I H G)
        (let ((a!1 (ite (and (not (<= G 0)) (>= (HeapSize K) G))
                (select (HeapContents K) G)
                defObj)))
  (and (= E (h (getnode a!1)))
       (= F 0)
       (= F J)
       (= C I)
       (= B H)
       (= A G)
       (= D K)
       ((_ is O_node) a!1)
       (not (= E 3))
       (= 1 v_11)))
      )
      (inv_main44 D v_11 C B A)
    )
  )
)
(assert
  (forall ( (A Int) (B Int) (C Int) (D Int) (E Heap) (F Int) (G Int) (H Int) (I Int) (J Int) (K Heap) ) 
    (=>
      (and
        (inv_main40 K J I H G)
        (let ((a!1 (ite (and (not (<= G 0)) (>= (HeapSize K) G))
                (select (HeapContents K) G)
                defObj)))
  (and (= F (h (getnode a!1)))
       (= D J)
       (= C I)
       (= B H)
       (= A G)
       (= E K)
       ((_ is O_node) a!1)
       (not (= F 1))))
      )
      (inv_main57 E D C B A)
    )
  )
)
(assert
  (forall ( (A Int) (B Int) (C Int) (D Int) (E Heap) (F Int) (G Int) (H Int) (I Int) (J Int) (K Heap) ) 
    (=>
      (and
        (inv_main44 K J I H G)
        (let ((a!1 (ite (and (not (<= G 0)) (>= (HeapSize K) G))
                (select (HeapContents K) G)
                defObj)))
  (and (= F (h (getnode a!1)))
       (= D J)
       (= C I)
       (= B H)
       (= A G)
       (= E K)
       ((_ is O_node) a!1)
       (not (= F 2))))
      )
      (inv_main57 E D C B A)
    )
  )
)
(assert
  (forall ( (A Int) (B Int) (C Int) (D Int) (E Int) (F Heap) ) 
    (=>
      (and
        (inv_main12 F E D C B)
        (and (= E 0) (not (= A 0)))
      )
      (inv_main18 F E D C B)
    )
  )
)
(assert
  (forall ( (A Int) (B Int) (C Int) (D Heap) (E Int) (F Int) (G Int) (H Int) (I Int) (J Int) (K Heap) (v_11 Int) ) 
    (=>
      (and
        (inv_main33 K J I H G)
        (let ((a!1 (ite (and (not (<= G 0)) (>= (HeapSize K) G))
                (select (HeapContents K) G)
                defObj)))
  (and (= E (h (getnode a!1)))
       (not (= F 0))
       (= F J)
       (= C I)
       (= B H)
       (= A G)
       (= D K)
       ((_ is O_node) a!1)
       (not (= E 3))
       (= 0 v_11)))
      )
      (inv_main40 D v_11 C B A)
    )
  )
)
(assert
  (forall ( (A Int) (B Int) (C Int) (D Int) (E Int) (F Heap) ) 
    (=>
      (and
        (inv_main12 F E D C B)
        (= A 0)
      )
      (inv_main13 F E D C B)
    )
  )
)
(assert
  (forall ( (A Int) (B Int) (C Int) (D Int) (E Heap) ) 
    (=>
      (and
        (inv_main17 E D C B A)
        (let ((a!1 (ite (and (not (<= A 0)) (>= (HeapSize E) A))
                (select (HeapContents E) A)
                defObj)))
  (not ((_ is O_node) a!1)))
      )
      CHC_COMP_FALSE
    )
  )
)
(assert
  (forall ( (A Int) (B Int) (C Int) (D Int) (E Heap) ) 
    (=>
      (and
        (inv_main18 E D C B A)
        (let ((a!1 (ite (and (not (<= A 0)) (>= (HeapSize E) A))
                (select (HeapContents E) A)
                defObj)))
  (not ((_ is O_node) a!1)))
      )
      CHC_COMP_FALSE
    )
  )
)
(assert
  (forall ( (A Int) (B Int) (C Int) (D Int) (E Heap) ) 
    (=>
      (and
        (inv_main23 E D C B A)
        (let ((a!1 (ite (and (not (<= A 0)) (>= (HeapSize E) A))
                (select (HeapContents E) A)
                defObj)))
  (not ((_ is O_node) a!1)))
      )
      CHC_COMP_FALSE
    )
  )
)
(assert
  (forall ( (A Int) (B Int) (C Int) (D Int) (E Heap) ) 
    (=>
      (and
        (inv_main29 E D C B A)
        (let ((a!1 (ite (and (not (<= A 0)) (>= (HeapSize E) A))
                (select (HeapContents E) A)
                defObj)))
  (not ((_ is O_node) a!1)))
      )
      CHC_COMP_FALSE
    )
  )
)
(assert
  (forall ( (A Int) (B Int) (C Int) (D Int) (E Heap) ) 
    (=>
      (and
        (inv_main13 E D C B A)
        (let ((a!1 (ite (and (not (<= A 0)) (>= (HeapSize E) A))
                (select (HeapContents E) A)
                defObj)))
  (not ((_ is O_node) a!1)))
      )
      CHC_COMP_FALSE
    )
  )
)
(assert
  (forall ( (A Int) (B Int) (C Int) (D Int) (E Heap) ) 
    (=>
      (and
        (inv_main33 E D C B A)
        (let ((a!1 (ite (and (not (<= A 0)) (>= (HeapSize E) A))
                (select (HeapContents E) A)
                defObj)))
  (not ((_ is O_node) a!1)))
      )
      CHC_COMP_FALSE
    )
  )
)
(assert
  (forall ( (A Int) (B Int) (C Int) (D Int) (E Heap) ) 
    (=>
      (and
        (inv_main40 E D C B A)
        (let ((a!1 (ite (and (not (<= A 0)) (>= (HeapSize E) A))
                (select (HeapContents E) A)
                defObj)))
  (not ((_ is O_node) a!1)))
      )
      CHC_COMP_FALSE
    )
  )
)
(assert
  (forall ( (A Int) (B Int) (C Int) (D Int) (E Heap) ) 
    (=>
      (and
        (inv_main44 E D C B A)
        (let ((a!1 (ite (and (not (<= A 0)) (>= (HeapSize E) A))
                (select (HeapContents E) A)
                defObj)))
  (not ((_ is O_node) a!1)))
      )
      CHC_COMP_FALSE
    )
  )
)
(assert
  (forall ( (A Int) (B Int) (C Int) (D Int) (E Heap) ) 
    (=>
      (and
        (inv_main37 E D C B A)
        (let ((a!1 (ite (and (not (<= A 0)) (>= (HeapSize E) A))
                (select (HeapContents E) A)
                defObj)))
  (not ((_ is O_node) a!1)))
      )
      CHC_COMP_FALSE
    )
  )
)
(assert
  (forall ( (A Int) (B Int) (C Int) (D Int) (E Heap) ) 
    (=>
      (and
        (inv_main49 E D C B A)
        (let ((a!1 (ite (and (not (<= A 0)) (>= (HeapSize E) A))
                (select (HeapContents E) A)
                defObj)))
  (not ((_ is O_node) a!1)))
      )
      CHC_COMP_FALSE
    )
  )
)
(assert
  (forall ( (A Int) (B Int) (C Int) (D Int) (E Int) (F Heap) ) 
    (=>
      (and
        (inv_main53 F E D C B A)
        (let ((a!1 (ite (and (not (<= B 0)) (>= (HeapSize F) B))
                (select (HeapContents F) B)
                defObj)))
  (not ((_ is O_node) a!1)))
      )
      CHC_COMP_FALSE
    )
  )
)
(assert
  (forall ( (A Int) (B Int) (C Int) (D Int) (E Heap) ) 
    (=>
      (and
        (inv_main57 E D C B A)
        true
      )
      CHC_COMP_FALSE
    )
  )
)
(assert
  (forall ( (CHC_COMP_UNUSED Bool) ) 
    (=>
      (and
        CHC_COMP_FALSE
      )
      false
    )
  )
)

(check-sat)
(exit)
